(set-info :smt-lib-version 2.8)
(set-logic QF_EIA)
(set-info :source |
Generated by: Florian Frohn
Generator: LoAT
Application: proving unsatisfiability of CHCs
Target solver: SwInE
Time limit: 1.0
Benchmarks generated by the verification tool LoAT to evaluate the SMT solver
SwInE. We extracted all benchmarks with exponentiation that were generated by
LoAT when analyzing the examples from the category LIA-Lin (linear CHCs with
linear integer arithmetic) of the CHC competitions 2022 and 2023, and when
analyzing the examples from the categories "Termination of Integer Transition
Systems" and "Complexity of Integer Transition Systems" of the Termination and
Complexity Competition 2024. From the entire set, we selected those where
* SwInE v0.1.0 or SwInE-Z3 v0.1.2 failed or needed more than 1 second, or
* SwInE-Z3 v0.1.2 failed without phasing, a technique to prevent SwInE from
  computing with huge constants (described here
  https://arxiv.org/abs/2502.04761)
If several selected benchmarks only differed in lines not containing
exponentiation, we kept only one of them. This benchmark is known to be
satisfiable with the slightly different semantics of exponentiation used by the
versions of SwInE mentioned above.
|)
(set-info :license "https://creativecommons.org/licenses/by/4.0/")
(set-info :category "industrial")
(set-info :status unknown)

(declare-fun i1 () Int)
(declare-fun it384 () Int)
(declare-fun it385 () Int)
(declare-fun it15 () Int)
(declare-fun it386 () Int)
(declare-fun it14 () Int)
(declare-fun it13 () Int)
(declare-fun it387 () Int)
(declare-fun bt433 () Bool)
(declare-fun bt434 () Bool)
(declare-fun bt435 () Bool)
(declare-fun bt436 () Bool)
(declare-fun it17 () Int)
(declare-fun it16 () Int)
(declare-fun it18 () Int)
(declare-fun bt25 () Bool)
(declare-fun bt28 () Bool)
(declare-fun bt26 () Bool)
(declare-fun bt27 () Bool)
(declare-fun it391 () Int)
(declare-fun it392 () Int)
(declare-fun it393 () Int)
(declare-fun it394 () Int)
(declare-fun bt437 () Bool)
(declare-fun bt438 () Bool)
(declare-fun bt439 () Bool)
(declare-fun bt440 () Bool)
(declare-fun it356 () Int)
(declare-fun it468 () Int)
(declare-fun it469 () Int)
(declare-fun it470 () Int)
(declare-fun it471 () Int)
(declare-fun bt509 () Bool)
(declare-fun bt510 () Bool)
(declare-fun bt511 () Bool)
(declare-fun bt512 () Bool)
(declare-fun it397 () Int)
(declare-fun bt442 () Bool)
(declare-fun bt441 () Bool)
(declare-fun it396 () Int)
(declare-fun bt443 () Bool)
(declare-fun bt444 () Bool)
(declare-fun it395 () Int)
(declare-fun it474 () Int)
(declare-fun it475 () Int)
(declare-fun it476 () Int)
(declare-fun it477 () Int)
(declare-fun bt513 () Bool)
(declare-fun bt514 () Bool)
(declare-fun bt515 () Bool)
(declare-fun bt516 () Bool)
(declare-fun it478 () Int)
(declare-fun it479 () Int)
(declare-fun bt519 () Bool)
(declare-fun bt517 () Bool)
(declare-fun bt518 () Bool)
(declare-fun it480 () Int)
(declare-fun bt520 () Bool)
(declare-fun it482 () Int)
(declare-fun it483 () Int)
(declare-fun it484 () Int)
(declare-fun it485 () Int)
(declare-fun bt521 () Bool)
(declare-fun bt522 () Bool)
(declare-fun bt523 () Bool)
(declare-fun bt524 () Bool)
(declare-fun bt528 () Bool)
(declare-fun it486 () Int)
(declare-fun bt527 () Bool)
(declare-fun it488 () Int)
(declare-fun it487 () Int)
(declare-fun bt526 () Bool)
(declare-fun bt525 () Bool)
(assert (= (+ i1 (- 1)) 0))
(assert (= (+ it384 (- 2)) 0))
(assert (= (+ (* it15 (- 1)) it385) 0))
(assert (= (+ (* it14 (- 1)) it386) 0))
(assert (= (+ it387 (* it13 (- 1))) 0))
(assert (or (not bt433) (and false bt433)))
(assert (or bt434 (and false (not bt434))))
(assert (or (not bt435) (and false bt435)))
(assert (or (not bt436) (and false bt436)))
(assert (and bt27
     (not bt26)
     (not bt28)
     (not bt25)
     (= (+ it18 (- 1)) 0)
     (= (+ it384 (- 2)) 0)
     bt434
     (not bt436)
     (not bt435)
     (not bt433)
     (= (+ it387 (* it16 (- 1))) 0)
     (= (+ (* it17 (- 1)) it386) 0)))
(assert (= (+ it391 (- 2)) 0))
(assert (= (+ (* it18 (- 1)) it392) 0))
(assert (= (+ (* it17 (- 1)) it393) 0))
(assert (= (+ it394 (* it16 (- 1))) 0))
(assert (or (and bt27 bt437) (and (not bt27) (not bt437))))
(assert (or (and (not bt28) (not bt438)) (and bt28 bt438)))
(assert (or (and bt26 bt439) (and (not bt26) (not bt439))))
(assert (or (and (not bt25) (not bt440)) (and bt25 bt440)))
(assert (let ((a!1 (+ (+ 0 it394)
              (* (** 3 (+ it356 (- 1))) (+ 0 it392) (+ 0 (- 1))))))
  (and (>= (* it393 (- 1)) 0)
       (not bt438)
       bt437
       (>= (+ (* it391 (- 1)) 2) 0)
       (> a!1 (+ 0 0))
       (>= (+ it391 (- 2)) 0)
       (not bt440)
       (>= (+ it356 (- 1)) 0)
       (not bt439)
       (> (+ it394 (* it392 (- 1))) 0))))
(assert (= (+ it468 (* it391 (- 1))) 0))
(assert (= (+ (+ 0 it469) (* (+ 0 it392) (** 3 it356) (+ 0 (- 1))))
   (+ 0 0)))
(assert (= (+ it470 (* it393 (- 1))) 0))
(assert (= (+ it471 (* it394 (- 1))) 0))
(assert (or bt509 (and false (not bt509))))
(assert (or (not bt510) (and false bt510)))
(assert (or (not bt511) (and false bt511)))
(assert (or (and false bt512) (not bt512)))
(assert (and (> (+ it471 (* it469 (- 1))) 0)
     (= (+ it469 (* it395 (- 1))) 0)
     (= (+ it468 (- 2)) 0)
     (not bt512)
     (not bt510)
     (not bt511)
     bt509
     (not bt444)
     (not bt443)
     (= (+ it470 (* it396 (- 1))) 0)
     bt441
     bt442
     (= (+ it471 (* it397 (- 1))) 0)))
(assert (= (+ it474 (- 2)) 0))
(assert (= (+ it475 (* it395 (- 1))) 0))
(assert (= (+ it476 (* it396 (- 1))) 0))
(assert (= (+ it477 (* it397 (- 1))) 0))
(assert (or (and (not bt442) (not bt513)) (and bt513 bt442)))
(assert (or (and bt514 bt441) (and (not bt514) (not bt441))))
(assert (or (and (not bt515) (not bt443)) (and bt515 bt443)))
(assert (or (and bt516 bt444) (and (not bt516) (not bt444))))
(assert (and (not bt520)
     (not bt515)
     (= (+ (* it480 (- 1)) it477) 0)
     bt518
     (not bt516)
     (<= it476 0)
     (not bt517)
     bt514
     (= (+ it474 (- 2)) 0)
     bt513
     bt519
     (= (+ (* it479 (- 1)) it476) 0)
     (= (+ (* it478 (- 1)) it475) 0)))
(assert (= (+ it482 (- 2)) 0))
(assert (= (+ (* it478 (- 1)) it483) 0))
(assert (= (+ it484 (* it479 (- 1))) 0))
(assert (= (+ (* it480 (- 1)) it485) 0))
(assert (or (and bt521 bt518) (and (not bt521) (not bt518))))
(assert (or (and bt522 bt517) (and (not bt522) (not bt517))))
(assert (or (and (not bt523) (not bt519)) (and bt523 bt519)))
(assert (or (and bt524 bt520) (and (not bt520) (not bt524))))
(assert (let ((a!1 (and (not bt525)
                (not bt526)
                (= (+ (* it487 (- 1)) it484) 0)
                (= (+ (* it488 (- 1)) it485) 0)))
      (a!3 (and bt525 (not bt526) (= (+ (* it487 (- 1)) it484) 0)))
      (a!5 (and bt525
                bt526
                (= (+ (* it487 (- 1)) it484) 0)
                (= (+ (* it488 (- 1)) it485) 0)))
      (a!7 (and (not bt525)
                bt526
                (= (+ (* it487 (- 1)) it484) 0)
                (= (+ (* it488 (- 1)) it485) 0))))
(let ((a!2 (and a!1 (not bt528) (not bt527) (= (+ (* it486 (- 1)) it483) 0)))
      (a!4 (and a!3
                (= (+ (* it486 (- 1)) (* it483 2)) 0)
                (= (+ (* it488 (- 1)) it485) 0)
                bt527
                (not bt528)))
      (a!6 (and a!5 bt528 (not bt527) (= (+ (* it486 (- 1)) it483) 0)))
      (a!8 (and a!7 (not bt528) (not bt527) (= (+ (* it486 (- 1)) it483) 0)))
      (a!9 (and a!7 bt528 (not bt527) (= (+ (* it486 (- 1)) it483) 0)))
      (a!10 (or bt521
                (and a!7 (= (+ it486 (- 1)) 0) (not bt528) (not bt527))
                bt523
                bt524
                (not bt522)))
      (a!11 (and a!5 (not bt528) (not bt527) (= (+ (* it486 (- 1)) it483) 0)))
      (a!13 (and a!1 bt528 (not bt527) (= (+ (* it486 (- 1)) it483) 0)))
      (a!15 (and a!1 bt527 (not bt528) (= (+ (* it486 (- 1)) it483) 0)))
      (a!16 (and a!7 bt527 (not bt528) (= (+ (* it486 (- 1)) it483) 0)))
      (a!17 (and a!3 (= (+ (* it488 (- 1)) it485) 0)))
      (a!20 (and a!5 bt527 (= (+ (* it486 (- 1)) (* it483 3)) 0) (not bt528))))
(let ((a!12 (or (<= (+ it485 (* it483 (- 1))) 0)
                bt522
                (not bt521)
                bt523
                bt524
                a!11))
      (a!14 (or bt522
                (not bt521)
                a!13
                bt523
                bt524
                (> (+ it485 (* it483 (- 1))) 0)))
      (a!18 (and a!17 bt528 (not bt527) (= (+ (* it486 (- 1)) it483) 0)))
      (a!19 (and a!17 bt527 (not bt528) (= (+ (* it486 (- 1)) it483) 0))))
  (and (or bt522 a!2 (not bt521) bt523 (not bt524))
       (or (or (not bt523) bt521) a!4 bt522 bt524)
       (or (not bt521) bt523 (not bt524) (not bt522) a!6)
       (or (or (not bt523) bt521) a!8 bt524 (not bt522))
       (or a!9 bt521 bt523 (not bt524) (not bt522))
       (or (or bt521 bt522) (> it483 0) bt523 (not bt524) a!6)
       a!10
       (= (+ it482 (- 2)) 0)
       a!12
       a!14
       (or (<= it484 0) (not bt521) bt523 bt524 a!15 (not bt522))
       (or a!16 (not bt521) bt523 bt524 (> it484 0) (not bt522))
       (or (or bt521 bt522) a!18 bt523 (<= it483 0) (not bt524))
       (or (or bt521 bt522) a!2 bt523 bt524)
       (or (not bt523) (not bt521) bt524 a!19 (not bt522))
       (or (not bt523) a!20 bt522 (not bt521) bt524))))))
(check-sat)
(exit)
